0 0 0 0
0 1 0 0
0 2 2 0
0 3 1 0
0 4 1 8
0 5 0 4
0 6 2 9
0 7 2 4
0 8 2 10
0 9 2 10
0 10 0 9
0 11 1 4
0 12 1 18
0 13 2 4
0 14 2 22
0 15 2 9
0 16 2 8
0 17 2 19
0 18 2 18
0 19 2 23
0 20 2 12
0 21 0 15
0 22 2 18
0 23 2 20
0 24 0 29
0 25 1 26
0 26 0 34
0 27 1 20
0 28 1 29
0 29 2 29
0 30 0 35
0 31 0 39
